Set parameter Username
Set parameter Threads to value 1
Academic license - for non-commercial use only - expires 2022-07-11
Set parameter TimeLimit to value 300
Gurobi Optimizer version 9.5.1 build v9.5.1rc2 (linux64)
Thread count: 2 physical cores, 4 logical processors, using up to 1 threads
Optimize a model with 1007 rows, 906 columns and 4302 nonzeros
Model fingerprint: 0x7ee164bc
Variable types: 40 continuous, 866 integer (866 binary)
Coefficient statistics:
  Matrix range     [1e-01, 4e+02]
  Objective range  [2e-02, 5e-01]
  Bounds range     [1e+00, 1e+00]
  RHS range        [1e+00, 1e+03]
Presolve removed 213 rows and 78 columns
Presolve time: 0.05s
Presolved: 794 rows, 828 columns, 3793 nonzeros
Variable types: 39 continuous, 789 integer (789 binary)

Root relaxation: objective 1.733781e+00, 950 iterations, 0.02 seconds (0.02 work units)

    Nodes    |    Current Node    |     Objective Bounds      |     Work
 Expl Unexpl |  Obj  Depth IntInf | Incumbent    BestBd   Gap | It/Node Time

     0     0    1.73378    0  106          -    1.73378      -     -    0s
     0     0    1.82664    0  111          -    1.82664      -     -    0s
H    0     0                       2.9926340    1.82664  39.0%     -    0s
     0     0    1.87338    0  110    2.99263    1.87338  37.4%     -    0s
     0     0    1.92796    0   90    2.99263    1.92796  35.6%     -    0s
H    0     0                       2.6183937    1.92796  26.4%     -    0s
H    0     0                       2.5682302    1.92796  24.9%     -    0s
     0     0    1.96066    0   86    2.56823    1.96066  23.7%     -    0s
     0     0    2.01203    0   72    2.56823    2.01203  21.7%     -    0s
H    0     0                       2.5599666    2.01203  21.4%     -    0s
     0     0    2.04450    0   84    2.55997    2.04450  20.1%     -    0s
     0     0    2.05131    0   87    2.55997    2.05131  19.9%     -    0s
     0     0    2.05255    0   85    2.55997    2.05255  19.8%     -    0s
     0     0    2.05274    0   93    2.55997    2.05274  19.8%     -    0s
     0     0    2.05275    0   94    2.55997    2.05275  19.8%     -    0s
     0     0    2.07879    0   82    2.55997    2.07879  18.8%     -    0s
H    0     0                       2.4452644    2.07879  15.0%     -    0s
H    0     0                       2.3358935    2.07879  11.0%     -    0s
     0     0    2.08596    0  114    2.33589    2.08596  10.7%     -    0s
     0     0    2.09148    0  107    2.33589    2.09148  10.5%     -    0s
     0     0    2.09405    0  123    2.33589    2.09405  10.4%     -    0s
     0     0    2.09565    0  105    2.33589    2.09565  10.3%     -    0s
     0     0    2.09583    0  112    2.33589    2.09583  10.3%     -    0s
     0     0    2.09589    0  104    2.33589    2.09589  10.3%     -    0s
     0     0    2.09873    0  115    2.33589    2.09873  10.2%     -    0s
H    0     0                       2.3090653    2.09873  9.11%     -    0s
     0     0    2.09896    0  108    2.30907    2.09896  9.10%     -    0s
     0     0    2.09970    0  101    2.30907    2.09970  9.07%     -    0s
     0     0    2.09999    0  111    2.30907    2.09999  9.05%     -    0s
     0     0    2.10419    0  100    2.30907    2.10419  8.87%     -    0s
H    0     0                       2.2270102    2.10419  5.52%     -    0s
     0     0    2.10700    0   97    2.22701    2.10700  5.39%     -    0s
     0     0    2.10769    0  101    2.22701    2.10769  5.36%     -    0s
     0     0    2.10771    0  106    2.22701    2.10771  5.36%     -    0s
     0     0    2.11035    0   88    2.22701    2.11035  5.24%     -    0s
     0     0    2.11183    0   91    2.22701    2.11183  5.17%     -    0s
     0     0    2.11256    0  108    2.22701    2.11256  5.14%     -    0s
     0     0    2.11266    0  107    2.22701    2.11266  5.13%     -    0s
     0     0    2.11377    0   86    2.22701    2.11377  5.08%     -    0s
     0     0    2.11495    0   96    2.22701    2.11495  5.03%     -    0s
     0     0    2.11519    0   96    2.22701    2.11519  5.02%     -    0s
     0     0    2.11636    0   92    2.22701    2.11636  4.97%     -    0s
     0     0    2.11682    0  115    2.22701    2.11682  4.95%     -    0s
     0     0    2.11703    0   97    2.22701    2.11703  4.94%     -    0s
     0     0    2.11876    0  102    2.22701    2.11876  4.86%     -    0s
     0     0    2.11876    0  102    2.22701    2.11876  4.86%     -    0s
H    0     0                       2.1695945    2.11973  2.30%     -    0s
     0     0    2.11973    0   79    2.16959    2.11973  2.30%     -    0s
     0     0    2.11973    0   83    2.16959    2.11973  2.30%     -    0s
     0     0    2.11973    0   70    2.16959    2.11973  2.30%     -    0s
     0     0    2.11973    0   87    2.16959    2.11973  2.30%     -    1s
     0     0    2.11973    0   69    2.16959    2.11973  2.30%     -    1s
     0     0    2.11973    0   73    2.16959    2.11973  2.30%     -    1s
     0     0    2.11973    0   73    2.16959    2.11973  2.30%     -    1s
     0     0    2.11973    0  100    2.16959    2.11973  2.30%     -    1s
     0     0    2.11973    0   65    2.16959    2.11973  2.30%     -    1s
     0     0    2.11973    0   94    2.16959    2.11973  2.30%     -    1s
     0     0    2.11973    0   82    2.16959    2.11973  2.30%     -    1s
     0     0    2.11973    0   97    2.16959    2.11973  2.30%     -    1s
     0     0    2.11973    0   96    2.16959    2.11973  2.30%     -    1s
     0     0    2.11973    0   91    2.16959    2.11973  2.30%     -    1s
     0     0    2.12240    0   88    2.16959    2.12240  2.18%     -    1s
     0     0    2.12291    0   77    2.16959    2.12291  2.15%     -    1s
     0     0    2.12295    0   80    2.16959    2.12295  2.15%     -    1s
     0     0    2.12441    0   89    2.16959    2.12441  2.08%     -    1s
     0     0    2.12441    0   87    2.16959    2.12441  2.08%     -    1s
     0     0    2.12645    0   62    2.16959    2.12645  1.99%     -    1s
     0     0    2.12645    0   79    2.16959    2.12645  1.99%     -    1s
     0     0    2.12645    0   83    2.16959    2.12645  1.99%     -    1s
     0     0    2.12645    0   76    2.16959    2.12645  1.99%     -    1s
     0     0    2.12645    0   90    2.16959    2.12645  1.99%     -    1s
     0     0    2.12645    0   87    2.16959    2.12645  1.99%     -    1s
     0     0    2.12645    0  104    2.16959    2.12645  1.99%     -    1s
     0     0    2.12645    0   98    2.16959    2.12645  1.99%     -    1s
     0     0    2.12652    0  100    2.16959    2.12652  1.99%     -    1s
     0     0    2.12661    0  106    2.16959    2.12661  1.98%     -    1s
     0     0    2.12862    0   90    2.16959    2.12862  1.89%     -    1s
     0     0    2.12947    0   84    2.16959    2.12947  1.85%     -    1s
     0     0    2.12961    0  109    2.16959    2.12961  1.84%     -    1s
     0     0    2.12988    0  116    2.16959    2.12988  1.83%     -    1s
     0     0    2.12994    0  116    2.16959    2.12994  1.83%     -    1s
     0     0    2.13032    0  100    2.16959    2.13032  1.81%     -    1s
     0     0    2.13045    0  113    2.16959    2.13045  1.80%     -    1s
     0     0    2.13083    0  108    2.16959    2.13083  1.79%     -    1s
     0     0    2.13083    0  106    2.16959    2.13083  1.79%     -    1s
H    0     0                       2.1643648    2.13083  1.55%     -    1s
     0     0    2.13211    0   71    2.16436    2.13211  1.49%     -    1s
     0     0    2.13211    0   73    2.16436    2.13211  1.49%     -    1s
     0     0    2.13211    0   49    2.16436    2.13211  1.49%     -    2s
     0     0    2.13211    0   60    2.16436    2.13211  1.49%     -    2s
     0     0    2.13211    0   63    2.16436    2.13211  1.49%     -    2s
     0     0    2.13211    0   83    2.16436    2.13211  1.49%     -    2s
     0     0    2.13211    0   89    2.16436    2.13211  1.49%     -    2s
     0     0    2.13211    0  108    2.16436    2.13211  1.49%     -    2s
     0     0    2.13211    0   96    2.16436    2.13211  1.49%     -    2s
     0     0    2.13274    0  102    2.16436    2.13274  1.46%     -    2s
     0     0    2.13385    0  102    2.16436    2.13385  1.41%     -    2s
     0     0    2.13447    0   88    2.16436    2.13447  1.38%     -    2s
     0     0    2.13484    0   89    2.16436    2.13484  1.36%     -    2s
     0     0    2.13490    0   90    2.16436    2.13490  1.36%     -    2s
     0     0    2.13639    0   96    2.16436    2.13639  1.29%     -    2s
     0     0    2.13675    0   90    2.16436    2.13675  1.28%     -    2s
     0     0    2.13679    0   90    2.16436    2.13679  1.27%     -    2s
     0     0    2.13718    0   90    2.16436    2.13718  1.26%     -    2s
     0     0    2.13762    0   84    2.16436    2.13762  1.24%     -    2s
     0     0    2.13762    0   84    2.16436    2.13762  1.24%     -    2s
     0     0    2.14341    0   66    2.16436    2.14341  0.97%     -    2s
     0     0    2.14341    0   58    2.16436    2.14341  0.97%     -    2s
     0     0    2.14341    0   59    2.16436    2.14341  0.97%     -    2s
     0     0    2.14341    0   88    2.16436    2.14341  0.97%     -    2s
     0     0    2.14341    0   41    2.16436    2.14341  0.97%     -    2s
     0     0    2.14341    0   74    2.16436    2.14341  0.97%     -    2s
     0     0    2.14341    0   70    2.16436    2.14341  0.97%     -    2s
     0     0    2.14341    0   78    2.16436    2.14341  0.97%     -    2s
     0     0    2.14341    0   78    2.16436    2.14341  0.97%     -    2s
     0     0    2.14341    0   81    2.16436    2.14341  0.97%     -    2s
     0     0    2.14341    0   80    2.16436    2.14341  0.97%     -    2s
     0     0    2.14341    0   78    2.16436    2.14341  0.97%     -    2s
     0     0    2.14379    0   86    2.16436    2.14379  0.95%     -    2s
     0     0    2.14460    0   55    2.16436    2.14460  0.91%     -    2s
     0     0    2.14460    0   55    2.16436    2.14460  0.91%     -    2s
     0     0    2.14460    0   50    2.16436    2.14460  0.91%     -    2s
     0     0    2.14460    0   45    2.16436    2.14460  0.91%     -    2s
     0     0    2.14460    0   67    2.16436    2.14460  0.91%     -    2s
     0     0    2.14460    0   75    2.16436    2.14460  0.91%     -    2s
     0     0    2.14460    0   68    2.16436    2.14460  0.91%     -    2s
     0     0    2.14749    0   68    2.16436    2.14749  0.78%     -    2s
     0     0    2.14938    0   67    2.16436    2.14938  0.69%     -    2s
     0     0    2.15121    0   75    2.16436    2.15121  0.61%     -    2s
     0     0    2.15153    0   71    2.16436    2.15153  0.59%     -    2s
     0     0    2.15240    0   69    2.16436    2.15240  0.55%     -    2s
     0     0    2.15767    0   42    2.16436    2.15767  0.31%     -    2s

Cutting planes:
  Cover: 3
  Clique: 3
  MIR: 19
  RLT: 2
  Relax-and-lift: 19

Explored 1 nodes (15391 simplex iterations) in 2.99 seconds (1.77 work units)
Thread count was 1 (of 4 available processors)

Solution count 10: 2.16436 2.16959 2.22701 ... 2.99263

Optimal solution found (tolerance 1.00e-04)
Best objective 2.164364820107e+00, best bound 2.164364820107e+00, gap 0.0000%
